

























































































73 35 75 
7 42 38 
37 51 71 
72 22 69 
56 0 32 
23 61 13 
47 54 28 
66 70 4 
55 29 3 
62 19 44 24 
40 63 18 
21 16 43 36 
27 15 1 
65 39 17 
52 33 2 
67 46 68 
64 10 59 57 
74 14 9 
53 5 8 
11 34 12 
48 58 76 20 
6 30 45 
41 31 25 
50 49 
26 60 
